min_signal_strength = 5;
TOWER = {t0, t1, t2, t3, t4, t5, t6, t7, t8, t9, t10, t11, t12, t13, t14};
HANDSET = {h0, h1, h2, h3, h4, h5, h6, h7, h8, h9, h10, h11, h12, h13, h14, h15, h16, h17, h18, h19, h20, h21, h22, h23, h24, h25, h26, h27, h28, h29, h30, h31, h32, h33, h34, h35, h36, h37, h38, h39, h40, h41, h42, h43, h44, h45, h46, h47, h48, h49, h50, h51, h52, h53, h54, h55, h56, h57, h58, h59, h60, h61, h62, h63, h64, h65, h66, h67, h68, h69};
distance = distance = distance = distance = [|56.61, 13.04, 11.31, 5.00, 33.29, 40.25, 50.80, 23.09, 26.42, 42.72, 37.22, 11.... ]; // array too long to display, dimensions: (30)
 // array too long to display, dimensions: (981)

demand = demand = [88, 28, 76, 91, 50, 97, 51, 1, 89, 68, 21, 87, 62, 72, 42, 19, 54, 29, 87, 22, 1... ]; // array too long to display, dimensions: (70)

capacity = [300, 300, 300, 300, 300, 300, 300, 300, 300, 300, 300, 300, 300, 300, 300];
